problems/GracefulHelms/GracefulHelms-models/compact/O2/minion/model-n10-solution000001.eprime-solution
language ESSENCE' 1.0

letting colouring_Function1D be [0, 1, 3, 6, 2, 7, 13, 4, 11, 19, 30, 12, 15, 23, 26, 27, 28, 25, 24, 5, 29; int(0..20)]
letting edgeID_Function1D be
        [1, 2, 3, 4, 5, 6, 9, 7, 8, 19, 30, 11, 12, 17, 24, 20, 15, 21, 13, 14, 29, 28, 26, 23, 27, 22, 16, 25, 18, 10;
             int(0..29)]
